c Sudoku solution
p cnf 729 0
112 0
171 0
195 0
226 0
243 0
269 0
344 0
415 0
431 0
477 0
518 0
649 0
751 0
541 0
211 0
361 0
772 0
824 0
921 0
614 0
889 0
891 0
959 0
681 0
983 0
737 0
916 0
813 0
719 0
763 0
964 0
997 0
317 0
278 0
574 0
454 0
975 0
876 0
746 0
725 0
845 0
147 0
287 0
585 0
665 0
673 0
423 0
499 0
553 0
133 0
234 0
335 0
184 0
292 0
386 0
129 0
328 0
255 0
352 0
539 0
636 0
156 0
168 0
379 0
393 0
482 0
596 0
698 0
448 0
657 0
466 0
562 0
527 0
622 0
942 0
867 0
858 0
832 0
938 0
788 0
794 0
